<number of tasks>
50

<cycle time>
1000

<order strength>
0.896


<task times>
1 158
2 99
3 34
4 56
5 126
6 29
7 21
8 144
9 236
10 43
11 160
12 248
13 112
14 153
15 121
16 48
17 226
18 67
19 109
20 122
21 31
22 60
23 99
24 54
25 137
26 103
27 142
28 109
29 135
30 71
31 89
32 103
33 222
34 117
35 67
36 23
37 162
38 45
39 213
40 166
41 73
42 50
43 90
44 181
45 40
46 137
47 304
48 112
49 104
50 85

<precedence relations>
1,4
1,5
1,6
2,4
2,5
2,6
3,4
3,5
3,6
4,7
4,8
5,7
5,8
6,7
6,8
7,9
7,10
7,11
7,12
8,9
8,10
8,11
8,12
9,13
9,14
10,13
10,14
11,13
11,14
12,13
13,15
13,16
14,15
14,16
14,17
15,45
15,49
16,18
16,19
17,19
18,20
18,21
18,22
19,20
19,21
19,22
20,23
20,24
21,23
21,24
22,23
22,24
23,25
23,26
23,27
24,25
24,26
24,27
25,28
25,29
25,31
26,30
27,28
27,29
27,30
27,31
28,32
28,37
29,32
29,33
29,34
30,32
30,33
30,34
31,32
31,33
31,34
32,36
33,35
33,36
33,37
34,35
34,36
34,37
35,39
35,47
36,38
37,38
37,39
38,40
38,41
39,48
40,42
40,43
41,44
41,45
42,45
43,44
43,45
44,47
44,48
44,49
44,50
45,46

<end>
